3 48 1 10
8 9 6 5 19 7 19 16 19 4 19 19 13 5 1 17 15 5 19 20 5 19 6 9 6 10 16 5 13 18 1 7 11 16 7 11 16 19 13 4 7 9 4 12 2 5 15 20 
5 7.67 2.37 4.64 6.86 5.31 0.67 5.44 6.89 1.35 1.52 0.57 5.58 1.43 2.21 1.64 0.94 1.48 2.5 1.69 6.06 5.19 5.47 6.89 5.83 6.75 2.27 2.72 6.53 6.92 0.63 3.68 1.47 0.94 7.44 2.5 4.33 6.07 6.02 0.38 4.84 7.25 1.92 7.14 2.39 4.57 5.68 4.94 
4 4 4 4 4 4 4 4 4 4 4 4 4 4 4 4 4 4 4 4 4 4 4 4 4 4 4 4 4 4 4 4 4 4 4 4 4 4 4 4 4 4 4 4 4 4 4 4 
3.77 4.28 5.96 2.43 6.93 7.99 3.69 6.5 6.63 4.53 4.45 7.53 7.85 3.33 3.95 3.48 7.91 0.56 4.47 7.45 6.21 1.39 6.66 2.63 6.99 3.03 3.07 6.76 0.97 3.79 0.14 3.27 7.39 1.28 1.55 2.94 6.77 5.36 3.82 1.83 3.53 3.28 7.59 3.1 4.24 4.46 0.5 3.65 
1 1 1 1 1 1 1 1 1 1 1 1 1 1 1 1 1 1 1 1 1 1 1 1 1 1 1 1 1 1 1 1 1 1 1 1 1 1 1 1 1 1 1 1 1 1 1 1 
1 1 1 1 1 1 1 1 1 1 1 1 1 1 1 1 1 1 1 1 1 1 1 1 1 1 1 1 1 1 1 1 1 1 1 1 1 1 1 1 1 1 1 1 1 1 1 1 
1 1 1 1 1 1 1 1 1 1 1 1 1 1 1 1 1 1 1 1 1 1 1 1 1 1 1 1 1 1 1 1 1 1 1 1 1 1 1 1 1 1 1 1 1 1 1 1 
0.01 0.01 0.01 0.01 0.01 0.01 0.01 0.01 0.01 0.01 0.01 0.01 0.01 0.01 0.01 0.01 0.01 0.01 0.01 0.01 0.01 0.01 0.01 0.01 0.01 0.01 0.01 0.01 0.01 0.01 0.01 0.01 0.01 0.01 0.01 0.01 0.01 0.01 0.01 0.01 0.01 0.01 0.01 0.01 0.01 0.01 0.01 0.01 
0.02 0.02 0.02 0.02 0.02 0.02 0.02 0.02 0.02 0.02 0.02 0.02 0.02 0.02 0.02 0.02 0.02 0.02 0.02 0.02 0.02 0.02 0.02 0.02 0.02 0.02 0.02 0.02 0.02 0.02 0.02 0.02 0.02 0.02 0.02 0.02 0.02 0.02 0.02 0.02 0.02 0.02 0.02 0.02 0.02 0.02 0.02 0.02 
1 1 1 1 1 1 1 1 1 1 1 1 1 1 1 1 1 1 1 1 1 1 1 1 1 1 1 1 1 1 1 1 1 1 1 1 1 1 1 1 1 1 1 1 1 1 1 1 
